
%FILE DATA:	Soccer Computational Problem for MiniZinc Models	%
%AUTHOR:	Jack Wall	%
%CONTACT:  	116397063@umail.ucc.ie			%
%LAST UPDATE:	03/03/2020, 12:08:21						%
%DESCRIPTION: 	35 games played with 7 games left				%


n=7; %number of teams

%Games to play
games=[|5,4|4,3|1,3|5,7|7,1|2,4|1,5|];

%Initial points
iPoints=[14,18,11,15,16,17,10];

%POSITION CONSTRAINTS
% [|teamID, operator, position|...]
% operators index:
%  1 for =  operator
%  2 for >  operator
%  3 for >= operator
%  4 for <  operator
%  5 for <= operator
positionConstraints=[|2,3,1|6,4,3|5,1,3|7,2,3|];